db/data/3504165492064767124585102480899246.z3.out
sat
-------------------
27.917244995
